\ENCODING=ISO-8859-1
\Problem name: IloCplex

Minimize
 obj: - x1 - x2 - x3 - x4 - x5 - x6 - 1000000000000 x7 - x8 - x9 - x10 - x11
      - x12 - x13 - x14 + 0.0545454545454541 x15 - 0.818181818181818 x16 - x17
      + 1.16363636363636 x18 - x19 - x20 - x21 - x22 - 0.145454545454545 x23
      + 0.254545454545455 x24 - x25 - x26 + 0.0909090909090912 x27
      + 0.0545454545454541 x28 - 0.345454545454545 x29 - 0.745454545454545 x30
      + 0.145454545454545 x31 + 1.05454545454545 x32 - 0.254545454545454 x33
      - 0.145454545454545 x34 - 0.145454545454545 x35 - x36
      - 0.236363636363636 x37 - x38 - 0.545454545454546 x39
      - 0.545454545454545 x40 + 0.690909090909091 x41 + 0.745454545454547 x42
      - 0.800000000000001 x43 + 0.89090909090909 x44 - x45
      + 0.0909090909090906 x46 - 0.818181818181819 x47 + x48
      + 999999999997.836 x50 + 1
Subject To
 c1:  100 x1 + 100 x2 + 96 x3 + 94 x4 + 90 x5 + 88 x6 + 87 x7 + 85 x8 + 83 x9
      + 81 x10 + 80 x11 + 80 x12 + 77 x13 + 74 x14 + 65 x15 + 62 x16 + 62 x17
      + 62 x18 + 61 x19 + 59 x20 + 59 x21 + 57 x22 + 54 x23 + 51 x24 + 45 x25
      + 45 x26 + 40 x27 + 38 x28 + 37 x29 + 37 x30 + 37 x31 + 36 x32 + 29 x33
      + 29 x34 + 27 x35 + 26 x36 + 22 x37 + 22 x38 + 21 x39 + 17 x40 + 14 x41
      + 14 x42 + 8 x43 + 7 x44 + 6 x45 + 5 x46 + 5 x47 + 3 x48 + 3 x49 + x50
      <= 150
 c2:  x8 + x20 <= 1
 c3:  x14 + x17 <= 1
 c4:  x2 + x33 <= 1
 c5:  x3 + x28 <= 1
 c6:  x14 + x21 <= 1
 c7:  x12 + x15 <= 1
 c8:  x23 + x28 <= 1
 c9:  x15 + x20 <= 1
 c10: x11 + x19 <= 1
 c11: x3 + x23 <= 1
 c12: x1 + x25 <= 1
 c13: x7 + x30 <= 1
 c14: x1 + x30 <= 1
 c15: x7 + x19 <= 1
 c16: x1 + x32 <= 1
 c17: x13 + x17 <= 1
 c18: x6 + x20 <= 1
 c19: x4 + x23 <= 1
 c20: x12 + x25 <= 1
 c21: x6 + x16 <= 1
 c22: x2 + x25 <= 1
 c23: x35 + x36 <= 1
 c24: x11 + x25 <= 1
 c25: x10 + x20 <= 1
 c26: x6 + x23 <= 1
 c27: x14 + x22 <= 1
 c28: x38 + x39 <= 1
 c29: x22 + x23 <= 1
 c30: x11 + x22 <= 1
 c31: x45 + x49 <= 1
 c32: x37 + x39 <= 1
 c33: x10 + x17 <= 1
 c34: x7 + x28 <= 1
 c35: x4 + x25 <= 1
 c36: x33 + x39 <= 1
 c37: x9 + x26 <= 1
 c38: x4 + x33 <= 1
 c39: x19 + x20 <= 1
 c40: x31 + x40 <= 1
 c41: x5 + x34 <= 1
 c42: x12 + x26 <= 1
 c43: x5 + x21 <= 1
 c44: x14 + x26 <= 1
 c45: x21 + x22 <= 1
 c46: x11 + x29 <= 1
 c47: x11 + x28 <= 1
 c48: x35 + x39 <= 1
 c49: x15 + x32 <= 1
 c50: x3 + x31 <= 1
 c51: x16 + x26 <= 1
 c52: x9 + x15 <= 1
 c53: x22 + x28 <= 1
 c54: x47 + x49 <= 1
 c55: x24 + x30 <= 1
 c56: x4 + x31 <= 1
 c57: x20 + x22 <= 1
 c58: x10 + x27 <= 1
 c59: x17 + x21 <= 1
 c60: x9 + x29 <= 1
 c61: x40 + x48 <= 1
 c62: x4 + x36 <= 1
Bounds
 0 <= x1 <= 1
 0 <= x2 <= 1
 0 <= x3 <= 1
 0 <= x4 <= 1
 0 <= x5 <= 1
 0 <= x6 <= 1
      x7 = 1
 0 <= x8 <= 1
 0 <= x9 <= 1
 0 <= x10 <= 1
 0 <= x11 <= 1
 0 <= x12 <= 1
 0 <= x13 <= 1
 0 <= x14 <= 1
 0 <= x15 <= 1
 0 <= x16 <= 1
 0 <= x17 <= 1
      x18 = 1
 0 <= x19 <= 1
 0 <= x20 <= 1
 0 <= x21 <= 1
 0 <= x22 <= 1
 0 <= x23 <= 1
 0 <= x24 <= 1
 0 <= x25 <= 1
 0 <= x26 <= 1
 0 <= x27 <= 1
 0 <= x28 <= 1
 0 <= x29 <= 1
 0 <= x30 <= 1
 0 <= x31 <= 1
 0 <= x32 <= 1
 0 <= x33 <= 1
 0 <= x34 <= 1
 0 <= x35 <= 1
 0 <= x36 <= 1
 0 <= x37 <= 1
 0 <= x38 <= 1
 0 <= x39 <= 1
 0 <= x40 <= 1
 0 <= x41 <= 1
 0 <= x42 <= 1
 0 <= x43 <= 1
 0 <= x44 <= 1
 0 <= x45 <= 1
 0 <= x46 <= 1
 0 <= x47 <= 1
 0 <= x48 <= 1
 0 <= x49 <= 1
      x50 = 1
Binaries
 x1  x2  x3  x4  x5  x6  x7  x8  x9  x10  x11  x12  x13  x14  x15  x16  x17 
 x18  x19  x20  x21  x22  x23  x24  x25  x26  x27  x28  x29  x30  x31  x32 
 x33  x34  x35  x36  x37  x38  x39  x40  x41  x42  x43  x44  x45  x46  x47 
 x48  x49  x50 
End
